results/heuristics/cvrp_hgs/Vrp-Set-A-n33/Vrp-Set-A-n33-hgs/1.hgs1.vrp
NAME : 1
COMMENT : CVRP Instance
TYPE : CVRP
DIMENSION : 33
EDGE_WEIGHT_TYPE : EUC_2D
CAPACITY : 100
NODE_COORD_SECTION
1	0.034	0.031
2	0.045	0.055
3	0.07	0.08
4	0.081	0.07
5	0.085	0.061
6	0.059	0.055
7	0.045	0.06
8	0.05	0.064
9	0.08	0.064
10	0.075	0.09
11	0.025	0.04
12	0.009	0.066
13	0.001	0.044
14	0.05	0.054
15	0.035	0.045
16	0.071	0.084
17	0.001	0.009
18	0.025	0.054
19	0.045	0.059
20	0.045	0.071
21	0.066	0.084
22	0.011	0.035
23	0.081	0.046
24	0.085	0.01
25	0.075	0.02
26	0.015	0.021
27	0.09	0.045
28	0.015	0.0
29	0.031	0.026
30	0.01	0.095
31	0.006	0.006
32	0.051	0.005
33	0.026	0.036
DEMAND_SECTION
1	0
2	26
3	17
4	6
5	15
6	7
7	5
8	15
9	16
10	17
11	1
12	21
13	66
14	25
15	16
16	11
17	7
18	17
19	17
20	22
21	10
22	25
23	16
24	7
25	21
26	11
27	21
28	11
29	21
30	22
31	25
32	2
33	22
DEPOT_SECTION
1
-1
EOF
