results/heuristics/cvrp_hgs/Vrp-Set-A-n33/Vrp-Set-A-n33-hgs/1.hgs1.tour
Route #1: 32 25 16 30 27 28
Route #2: 22 26 24 23 31
Route #3: 5 2 20 15 9 3 8 4
Route #4: 14 1 18 6 13
Route #5: 17 11 29 19 7
Route #6: 10 12 21
Cost 0.742693
